************************************************************************
file with basedata            : mm2_.bas
initial value random generator: 365117140
************************************************************************
projects                      :  1
jobs (incl. supersource/sink ):  12
horizon                       :  79
RESOURCES
  - renewable                 :  2   R
  - nonrenewable              :  2   N
  - doubly constrained        :  0   D
************************************************************************
PROJECT INFORMATION:
pronr.  #jobs rel.date duedate tardcost  MPM-Time
    1     10      0       22        2       22
************************************************************************
PRECEDENCE RELATIONS:
jobnr.    #modes  #successors   successors
   0        1          3           1   2   3
   1        3          3           4   6   8
   2        3          3           4   5   8
   3        3          1           9
   4        3          1          10
   5        3          1           7
   6        3          2           7  10
   7        3          1           9
   8        3          1          11
   9        3          1          11
  10        3          1          11
  11        1          0        
************************************************************************
REQUESTS/DURATIONS:
jobnr. mode duration  R 1  R 2  R 3  R 4  E(W 1)
------------------------------------------------------------------------
  0      1     0       0    0    0    0     0
  1      1     9       0    5    0    4    81
  2      1     2       0    3    7    0    20
  3      1     7       6    0    0    8    98
  4      1     6       7    0    9    0    96
  5      1     1       5    0    0    2     7
  6      1     4      10    0   10    0    80
  7      1     4       0    7    0    8    60
  8      1     3       4    0    8    0    36
  9      1     4       5    0    0    6    44
 10      1     7       7    0    0    2    63
 11      1     0       0    0    0    0     0
************************************************************************
RESOURCEAVAILABILITIES:
  R 1
   78
************************************************************************
RESOURCE LIMITS:
jobnr.  l(R 1)  u(R 1)
------------------------------------------------------------------------
  0        0       0
  1        5       9
  2        6      10
  3        7      14
  4        9      16
  5        4       7
  6       10      20
  7        8      15
  8        6      12
  9        6      11
 10        5       9
 11        0       0
************************************************************************
SCENARIOS:
------------------------------------------------------------------------
RESOURCE k = 1
s = 1: (0, 102, 25, 108, 78, 5, 71, 57, 29, 72, 86, 0)
s = 2: (0, 104, 23, 146, 67, 7, 65, 36, 38, 33, 45, 0)
s = 3: (0, 52, 19, 125, 120, 7, 81, 64, 24, 37, 71, 0)
s = 4: (0, 68, 20, 84, 102, 7, 113, 55, 27, 36, 102, 0)
s = 5: (0, 129, 19, 110, 165, 6, 65, 56, 39, 51, 72, 0)
s = 6: (0, 96, 15, 110, 74, 8, 52, 43, 58, 47, 65, 0)
s = 7: (0, 91, 19, 69, 130, 7, 95, 51, 37, 50, 85, 0)
s = 8: (0, 56, 36, 61, 144, 6, 83, 50, 24, 31, 41, 0)
s = 9: (0, 44, 21, 64, 121, 6, 103, 70, 37, 79, 59, 0)
s = 10: (0, 114, 13, 113, 60, 7, 71, 80, 27, 38, 109, 0)
s = 11: (0, 72, 23, 154, 69, 11, 107, 78, 29, 45, 49, 0)
s = 12: (0, 51, 15, 59, 100, 9, 61, 113, 27, 31, 79, 0)
s = 13: (0, 108, 25, 96, 106, 6, 53, 70, 29, 33, 77, 0)
s = 14: (0, 63, 13, 98, 73, 13, 63, 47, 40, 51, 43, 0)
s = 15: (0, 89, 25, 133, 87, 5, 66, 55, 19, 46, 89, 0)
s = 16: (0, 85, 23, 86, 76, 13, 131, 78, 47, 59, 42, 0)
s = 17: (0, 88, 20, 68, 114, 4, 76, 45, 32, 48, 79, 0)
s = 18: (0, 83, 16, 106, 115, 9, 52, 63, 36, 47, 99, 0)
s = 19: (0, 94, 13, 148, 97, 5, 42, 88, 30, 29, 68, 0)
s = 20: (0, 58, 24, 86, 72, 9, 87, 70, 37, 36, 50, 0)
s = 21: (0, 85, 14, 73, 113, 8, 82, 62, 38, 45, 97, 0)
s = 22: (0, 65, 25, 102, 163, 6, 77, 59, 53, 38, 57, 0)
s = 23: (0, 97, 29, 99, 116, 10, 89, 49, 35, 48, 41, 0)
s = 24: (0, 66, 18, 91, 164, 9, 63, 42, 34, 63, 93, 0)
s = 25: (0, 63, 20, 127, 78, 8, 64, 48, 41, 28, 61, 0)
s = 26: (0, 77, 19, 83, 117, 7, 67, 54, 27, 34, 66, 0)
s = 27: (0, 58, 23, 122, 97, 9, 108, 44, 29, 62, 56, 0)
s = 28: (0, 79, 20, 66, 67, 9, 70, 66, 63, 35, 61, 0)
s = 29: (0, 95, 14, 105, 76, 5, 106, 89, 34, 74, 53, 0)
s = 30: (0, 71, 23, 83, 67, 9, 101, 106, 44, 55, 52, 0)
s = 31: (0, 56, 15, 132, 120, 9, 89, 46, 38, 49, 94, 0)
s = 32: (0, 67, 21, 143, 115, 7, 85, 64, 42, 26, 62, 0)
s = 33: (0, 101, 27, 90, 86, 5, 81, 92, 35, 59, 85, 0)
s = 34: (0, 111, 31, 99, 121, 7, 74, 39, 39, 42, 40, 0)
s = 35: (0, 114, 21, 156, 65, 4, 144, 66, 39, 61, 92, 0)
s = 36: (0, 71, 38, 100, 62, 14, 47, 40, 36, 53, 36, 0)
s = 37: (0, 89, 25, 101, 97, 8, 57, 55, 37, 59, 94, 0)
s = 38: (0, 69, 20, 156, 67, 7, 106, 37, 22, 57, 101, 0)
s = 39: (0, 123, 17, 66, 54, 9, 119, 42, 28, 24, 64, 0)
s = 40: (0, 109, 21, 74, 160, 10, 57, 76, 56, 80, 37, 0)
s = 41: (0, 52, 27, 72, 78, 5, 58, 57, 33, 47, 64, 0)
s = 42: (0, 103, 12, 93, 64, 7, 61, 64, 40, 24, 54, 0)
s = 43: (0, 98, 21, 57, 112, 6, 49, 60, 28, 35, 44, 0)
s = 44: (0, 48, 16, 73, 73, 12, 71, 77, 34, 59, 49, 0)
s = 45: (0, 83, 15, 96, 145, 7, 65, 43, 26, 35, 68, 0)
s = 46: (0, 80, 25, 72, 112, 7, 138, 39, 45, 42, 86, 0)
s = 47: (0, 104, 21, 65, 73, 14, 90, 60, 29, 70, 72, 0)
s = 48: (0, 81, 21, 74, 78, 7, 44, 50, 25, 40, 43, 0)
s = 49: (0, 56, 29, 117, 69, 9, 95, 57, 32, 39, 46, 0)
s = 50: (0, 89, 14, 88, 107, 8, 67, 41, 29, 46, 79, 0)
s = 51: (0, 64, 16, 116, 81, 9, 93, 65, 60, 46, 83, 0)
s = 52: (0, 52, 13, 139, 124, 5, 59, 63, 34, 41, 40, 0)
s = 53: (0, 82, 21, 114, 114, 8, 72, 54, 23, 32, 55, 0)
s = 54: (0, 74, 21, 85, 75, 7, 73, 58, 24, 69, 64, 0)
s = 55: (0, 122, 17, 84, 72, 5, 83, 49, 29, 35, 59, 0)
s = 56: (0, 82, 15, 76, 84, 7, 101, 53, 30, 25, 41, 0)
s = 57: (0, 79, 29, 71, 106, 6, 102, 47, 23, 70, 89, 0)
s = 58: (0, 104, 30, 75, 159, 9, 60, 43, 28, 57, 35, 0)
s = 59: (0, 92, 23, 116, 56, 8, 62, 84, 40, 43, 56, 0)
s = 60: (0, 87, 31, 54, 68, 7, 57, 40, 43, 46, 59, 0)
s = 61: (0, 87, 22, 101, 82, 11, 49, 36, 30, 49, 57, 0)
s = 62: (0, 53, 18, 111, 66, 8, 74, 72, 31, 41, 35, 0)
s = 63: (0, 96, 16, 143, 102, 9, 124, 56, 51, 57, 55, 0)
s = 64: (0, 70, 13, 72, 110, 10, 116, 72, 38, 60, 86, 0)
s = 65: (0, 111, 24, 135, 150, 8, 140, 82, 41, 73, 104, 0)
s = 66: (0, 116, 22, 58, 84, 10, 93, 49, 22, 59, 55, 0)
s = 67: (0, 67, 14, 135, 128, 5, 106, 63, 57, 34, 44, 0)
s = 68: (0, 123, 18, 81, 89, 10, 90, 64, 54, 51, 68, 0)
s = 69: (0, 65, 14, 92, 131, 4, 114, 73, 20, 38, 38, 0)
s = 70: (0, 77, 20, 109, 96, 5, 55, 55, 40, 29, 81, 0)
s = 71: (0, 121, 14, 87, 106, 7, 71, 52, 43, 27, 69, 0)
s = 72: (0, 69, 18, 100, 60, 9, 108, 49, 37, 36, 62, 0)
s = 73: (0, 77, 25, 79, 114, 8, 49, 56, 40, 25, 42, 0)
s = 74: (0, 112, 17, 94, 95, 9, 104, 67, 26, 35, 63, 0)
s = 75: (0, 98, 16, 113, 125, 8, 145, 78, 27, 43, 32, 0)
s = 76: (0, 80, 16, 113, 133, 4, 78, 80, 34, 36, 64, 0)
s = 77: (0, 60, 22, 63, 92, 5, 56, 66, 27, 48, 62, 0)
s = 78: (0, 46, 15, 132, 122, 7, 132, 49, 49, 75, 64, 0)
s = 79: (0, 101, 18, 78, 125, 10, 123, 99, 24, 40, 89, 0)
s = 80: (0, 69, 23, 83, 157, 11, 58, 79, 32, 30, 87, 0)
s = 81: (0, 84, 17, 97, 126, 7, 53, 67, 21, 35, 36, 0)
s = 82: (0, 79, 16, 91, 79, 5, 110, 38, 51, 27, 72, 0)
s = 83: (0, 49, 13, 74, 78, 6, 63, 52, 29, 40, 74, 0)
s = 84: (0, 51, 23, 139, 142, 8, 82, 37, 25, 32, 97, 0)
s = 85: (0, 85, 14, 89, 133, 9, 80, 50, 37, 61, 76, 0)
s = 86: (0, 76, 27, 120, 78, 11, 91, 84, 26, 56, 54, 0)
s = 87: (0, 52, 23, 71, 77, 10, 78, 68, 41, 29, 90, 0)
s = 88: (0, 75, 17, 78, 76, 9, 120, 100, 43, 86, 55, 0)
s = 89: (0, 72, 24, 134, 93, 8, 59, 53, 49, 33, 60, 0)
s = 90: (0, 58, 20, 58, 64, 9, 68, 74, 29, 54, 63, 0)
s = 91: (0, 71, 24, 159, 75, 5, 55, 58, 20, 50, 66, 0)
s = 92: (0, 52, 14, 70, 81, 7, 62, 77, 41, 38, 67, 0)
s = 93: (0, 68, 17, 61, 88, 5, 60, 40, 39, 36, 39, 0)
s = 94: (0, 80, 20, 63, 69, 7, 70, 34, 26, 60, 45, 0)
s = 95: (0, 81, 20, 132, 59, 9, 64, 71, 38, 71, 50, 0)
s = 96: (0, 113, 14, 69, 120, 9, 83, 65, 32, 52, 79, 0)
s = 97: (0, 100, 15, 119, 105, 7, 75, 52, 23, 34, 65, 0)
s = 98: (0, 65, 14, 92, 126, 7, 75, 48, 20, 62, 61, 0)
s = 99: (0, 94, 22, 88, 101, 9, 68, 50, 27, 46, 56, 0)
s = 100: (0, 66, 16, 101, 143, 6, 63, 42, 37, 32, 55, 0)
s = 101: (0, 107, 33, 102, 65, 7, 72, 35, 34, 44, 84, 0)
s = 102: (0, 72, 19, 83, 159, 12, 43, 59, 35, 64, 96, 0)
s = 103: (0, 101, 26, 72, 115, 9, 83, 61, 36, 24, 45, 0)
s = 104: (0, 63, 14, 126, 70, 5, 80, 52, 58, 56, 66, 0)
s = 105: (0, 47, 23, 106, 109, 8, 93, 38, 22, 53, 46, 0)
s = 106: (0, 95, 14, 100, 115, 6, 70, 37, 46, 54, 43, 0)
s = 107: (0, 46, 15, 59, 122, 9, 70, 44, 32, 48, 66, 0)
s = 108: (0, 115, 13, 80, 76, 6, 88, 76, 43, 78, 35, 0)
s = 109: (0, 92, 23, 112, 95, 6, 72, 43, 44, 30, 49, 0)
s = 110: (0, 117, 17, 66, 81, 7, 82, 101, 27, 47, 52, 0)
s = 111: (0, 76, 14, 92, 77, 5, 42, 67, 32, 73, 83, 0)
s = 112: (0, 81, 19, 105, 110, 7, 82, 60, 34, 40, 42, 0)
s = 113: (0, 89, 20, 81, 144, 6, 55, 61, 52, 44, 48, 0)
s = 114: (0, 48, 17, 66, 108, 5, 68, 57, 39, 36, 41, 0)
s = 115: (0, 118, 18, 140, 67, 12, 66, 88, 31, 40, 63, 0)
s = 116: (0, 111, 17, 116, 77, 10, 93, 118, 33, 30, 69, 0)
s = 117: (0, 76, 26, 126, 85, 11, 87, 49, 44, 41, 39, 0)
s = 118: (0, 97, 32, 93, 104, 9, 61, 70, 22, 32, 81, 0)
s = 119: (0, 129, 28, 81, 110, 10, 51, 90, 23, 39, 60, 0)
s = 120: (0, 134, 14, 116, 70, 9, 59, 72, 29, 32, 52, 0)
s = 121: (0, 93, 22, 98, 103, 10, 71, 58, 32, 60, 62, 0)
s = 122: (0, 58, 13, 88, 87, 5, 56, 71, 39, 39, 66, 0)
s = 123: (0, 49, 13, 70, 107, 10, 61, 87, 28, 62, 50, 0)
s = 124: (0, 127, 20, 81, 53, 4, 73, 35, 65, 40, 67, 0)
s = 125: (0, 68, 14, 138, 109, 6, 69, 65, 26, 36, 46, 0)
s = 126: (0, 43, 20, 63, 63, 5, 61, 52, 19, 40, 52, 0)
s = 127: (0, 96, 13, 64, 95, 5, 77, 58, 33, 28, 82, 0)
s = 128: (0, 80, 16, 90, 134, 8, 105, 57, 56, 31, 42, 0)
s = 129: (0, 47, 15, 112, 93, 9, 94, 53, 51, 72, 67, 0)
s = 130: (0, 115, 18, 114, 108, 4, 62, 66, 28, 61, 42, 0)
s = 131: (0, 75, 20, 156, 71, 7, 108, 99, 22, 43, 70, 0)
s = 132: (0, 66, 15, 113, 109, 11, 54, 40, 56, 39, 53, 0)
s = 133: (0, 68, 19, 87, 91, 7, 131, 62, 27, 62, 92, 0)
s = 134: (0, 52, 14, 146, 83, 11, 78, 48, 33, 30, 52, 0)
s = 135: (0, 113, 29, 70, 128, 10, 90, 53, 27, 39, 46, 0)
s = 136: (0, 60, 23, 78, 85, 7, 49, 49, 24, 38, 68, 0)
s = 137: (0, 49, 15, 94, 63, 10, 96, 87, 49, 65, 39, 0)
s = 138: (0, 71, 19, 79, 56, 7, 96, 43, 42, 63, 94, 0)
s = 139: (0, 71, 20, 86, 79, 8, 45, 39, 39, 38, 51, 0)
s = 140: (0, 79, 25, 79, 125, 6, 62, 76, 35, 26, 69, 0)
s = 141: (0, 80, 18, 99, 110, 9, 58, 80, 47, 31, 49, 0)
s = 142: (0, 68, 15, 111, 119, 6, 57, 91, 27, 53, 49, 0)
s = 143: (0, 120, 15, 75, 96, 6, 96, 57, 37, 43, 56, 0)
s = 144: (0, 87, 13, 89, 83, 12, 86, 53, 31, 58, 51, 0)
s = 145: (0, 96, 16, 85, 90, 7, 70, 80, 49, 39, 67, 0)
s = 146: (0, 52, 25, 124, 104, 8, 75, 58, 56, 40, 53, 0)
s = 147: (0, 59, 17, 102, 109, 8, 76, 42, 47, 38, 51, 0)
s = 148: (0, 94, 15, 124, 184, 10, 47, 36, 20, 29, 42, 0)
s = 149: (0, 77, 13, 80, 93, 7, 118, 86, 26, 47, 72, 0)
s = 150: (0, 48, 13, 62, 93, 7, 102, 35, 54, 51, 94, 0)
s = 151: (0, 66, 25, 64, 110, 5, 53, 56, 50, 55, 58, 0)
s = 152: (0, 59, 18, 101, 157, 5, 73, 73, 51, 40, 70, 0)
s = 153: (0, 79, 13, 159, 154, 8, 137, 62, 23, 43, 53, 0)
s = 154: (0, 44, 23, 127, 104, 5, 52, 71, 31, 51, 59, 0)
s = 155: (0, 92, 21, 132, 81, 6, 71, 63, 32, 59, 55, 0)
s = 156: (0, 59, 13, 161, 79, 6, 98, 54, 40, 58, 62, 0)
s = 157: (0, 117, 25, 77, 144, 8, 70, 47, 57, 37, 54, 0)
s = 158: (0, 101, 24, 194, 96, 10, 128, 41, 61, 67, 57, 0)
s = 159: (0, 127, 21, 142, 135, 6, 60, 37, 30, 66, 45, 0)
s = 160: (0, 45, 15, 106, 72, 9, 101, 50, 50, 47, 71, 0)
s = 161: (0, 103, 19, 87, 79, 12, 71, 60, 45, 30, 72, 0)
s = 162: (0, 87, 18, 119, 53, 9, 67, 53, 42, 57, 49, 0)
s = 163: (0, 96, 15, 59, 125, 5, 124, 83, 49, 54, 76, 0)
s = 164: (0, 111, 29, 113, 64, 8, 53, 65, 39, 33, 87, 0)
s = 165: (0, 78, 27, 133, 89, 10, 69, 55, 38, 30, 49, 0)
s = 166: (0, 86, 28, 151, 96, 7, 85, 44, 53, 58, 66, 0)
s = 167: (0, 68, 21, 51, 102, 8, 72, 44, 41, 31, 87, 0)
s = 168: (0, 89, 11, 105, 92, 6, 70, 48, 52, 37, 52, 0)
s = 169: (0, 79, 16, 146, 93, 7, 66, 90, 27, 49, 70, 0)
s = 170: (0, 49, 16, 163, 143, 7, 78, 45, 35, 59, 116, 0)
s = 171: (0, 86, 16, 90, 90, 11, 70, 103, 36, 50, 72, 0)
s = 172: (0, 113, 12, 110, 147, 6, 50, 107, 29, 80, 59, 0)
s = 173: (0, 82, 21, 77, 128, 8, 121, 79, 48, 29, 71, 0)
s = 174: (0, 70, 27, 71, 116, 5, 107, 76, 43, 49, 55, 0)
s = 175: (0, 70, 16, 94, 93, 6, 49, 39, 35, 74, 37, 0)
s = 176: (0, 79, 20, 96, 164, 7, 110, 46, 38, 57, 52, 0)
s = 177: (0, 73, 17, 71, 93, 11, 64, 52, 24, 45, 55, 0)
s = 178: (0, 61, 23, 103, 108, 7, 59, 64, 26, 29, 38, 0)
s = 179: (0, 80, 26, 62, 72, 5, 105, 110, 32, 39, 129, 0)
s = 180: (0, 72, 14, 66, 65, 8, 55, 87, 44, 33, 58, 0)
s = 181: (0, 56, 16, 86, 98, 7, 66, 61, 31, 29, 70, 0)
s = 182: (0, 102, 19, 137, 103, 8, 63, 86, 20, 35, 61, 0)
s = 183: (0, 60, 25, 54, 74, 11, 49, 91, 40, 51, 110, 0)
s = 184: (0, 118, 26, 120, 92, 5, 58, 62, 36, 41, 42, 0)
s = 185: (0, 70, 27, 141, 101, 10, 95, 100, 36, 48, 35, 0)
s = 186: (0, 63, 31, 68, 114, 5, 59, 61, 24, 43, 77, 0)
s = 187: (0, 97, 15, 112, 128, 6, 94, 73, 38, 45, 68, 0)
s = 188: (0, 92, 19, 113, 98, 7, 112, 43, 53, 65, 41, 0)
s = 189: (0, 55, 20, 100, 100, 9, 63, 73, 42, 43, 44, 0)
s = 190: (0, 97, 22, 99, 58, 7, 49, 83, 31, 33, 42, 0)
s = 191: (0, 67, 23, 113, 91, 7, 83, 58, 31, 41, 46, 0)
s = 192: (0, 54, 19, 62, 65, 6, 115, 51, 24, 39, 94, 0)
s = 193: (0, 108, 19, 142, 98, 9, 120, 76, 33, 53, 77, 0)
s = 194: (0, 72, 17, 108, 61, 6, 60, 60, 58, 57, 53, 0)
s = 195: (0, 68, 21, 62, 96, 6, 79, 62, 29, 33, 97, 0)
s = 196: (0, 133, 21, 78, 90, 11, 74, 36, 41, 45, 53, 0)
s = 197: (0, 83, 18, 87, 88, 10, 76, 64, 28, 50, 111, 0)
s = 198: (0, 98, 12, 81, 158, 5, 52, 44, 38, 40, 73, 0)
s = 199: (0, 72, 15, 132, 58, 10, 76, 46, 48, 59, 74, 0)
s = 200: (0, 92, 21, 98, 91, 6, 92, 89, 35, 38, 59, 0)
************************************************************************
ES/LS-VALUES:
jobnr.   ES(i)    LS(i)
------------------------------------------------------------------------
  0        0        0
  1        0       37
  2        0       48
  3        0       57
  4       14       52
  5        3       61
  6       14       55
  7       21       63
  8       14       73
  9       28       71
 10       25       64
 11       39       79
************************************************************************
BIG-M-VALUES:
M1 = 28, M2 = 194
************************************************************************
